conp opti
title
ASE calculation
end

cart
 C  core 37.4758450  48.7285460  -273.1557920
 C  core 38.9673840  49.0163380  -273.1021730
 C  core 39.8569260  47.8207930  -273.0136110
 C  core 37.0194850  47.3189540  -273.1175540
 C  core 38.0572360  46.2609670  -273.0281680
 C  core 39.3850020  46.5571980  -272.9820860
 C  core 40.3087690  45.4497830  -272.8956910
 C  core 37.4695970  44.9553220  -273.0000000
 C  core 38.4903790  43.9054790  -272.9117130
 C  core 39.8480260  44.1647490  -272.8627620
 C  core 40.8532370  43.0163650  -273.0384520
 C  core 37.9555590  42.5909120  -272.8808290
 C  core 38.9385070  41.5105670  -272.7929380
 C  core 40.3060000  41.7538220  -272.7429200
 C  core 41.2180790  40.6412120  -272.6567990
 C  core 38.4244500  40.1898040  -272.7608950
 C  core 39.3972020  39.1008990  -272.6730960
 C  core 40.7666820  39.3414840  -272.6228640
 C  core 41.7225650  38.1163560  -272.4689330
 C  core 38.8870960  37.7788010  -272.6408390
 F  core 37.3279500  42.4232750  -271.4071660
 F  core 41.6754300  45.8799170  -272.0043330
 F  core 42.3147960  40.7338330  -272.0664670

library ./Gulp_40/Libraries/reaxff.lib
